n_nodes = 92;
M = 11291;
n_domains = 23;
domain_link_weights = [|0,0,872,0,635,5913,0,57,0,0,0,0,0,0,0,0,0,0,0,0,0,0,0|0,0,0,0,306,5585,129,0,5877,0,0,0,0,0,0,0,0,0,0,0,0,0,1148|0,0,0,972,0,0,0,0,0,0,1129,0,0,0,0,0,0,0,0,0,0,0,0|0,0,0,0,0,0,0,0,0,0,1557,0,0,0,0,0,0,0,0,0,0,0,0|0,0,0,0,0,0,0,0,0,0,0,0,0,0,0,0,0,0,0,0,0,0,0|0,0,0,0,0,0,0,0,358,0,0,0,344,0,0,0,0,0,0,0,0,0,0|0,0,0,0,0,0,0,144,0,0,0,0,0,0,0,0,0,0,0,0,0,0,0|0,0,0,0,0,0,0,0,0,0,0,0,0,0,0,0,0,0,0,0,0,0,0|0,0,0,0,0,0,0,0,0,364,0,0,0,0,0,0,0,0,0,0,0,0,0|0,0,0,0,0,0,0,0,0,0,0,0,479,0,0,0,0,0,0,0,0,0,0|0,0,0,0,0,0,0,0,0,0,0,0,0,361,236,0,0,0,0,0,1635,0,0|0,0,0,0,0,0,0,0,0,0,0,0,0,10651,0,0,0,0,0,0,0,11290,9816|0,0,0,0,0,0,0,0,0,0,0,0,0,0,0,0,0,0,0,0,0,0,0|0,0,0,0,0,0,0,0,0,0,0,0,0,0,292,0,0,0,0,0,0,0,0|0,0,0,0,0,0,0,0,0,0,0,0,0,0,0,0,0,0,0,0,0,0,0|0,0,0,0,0,0,0,0,0,0,0,0,0,0,0,0,233,0,0,0,0,0,2795|0,0,0,0,0,0,0,0,0,0,0,0,0,0,0,0,0,0,860,0,0,0,0|0,0,0,0,0,0,0,0,0,0,0,0,0,0,0,0,0,0,8302,0,0,0,0|0,0,0,0,0,0,0,0,0,0,0,0,0,0,0,0,0,0,0,559,0,1528,0|0,0,0,0,0,0,0,0,0,0,0,0,0,0,0,0,0,0,0,0,575,0,0|0,0,0,0,0,0,0,0,0,0,0,0,0,0,0,0,0,0,0,0,0,0,0|0,0,0,0,0,0,0,0,0,0,0,0,0,0,0,0,0,0,0,0,0,0,0|0,0,0,0,0,0,0,0,0,0,0,0,0,0,0,0,0,0,0,0,0,0,0|];
num_node_links = 169;
node_links = [|0,2|0,4|0,5|0,7|1,8|1,22|1,4|1,5|1,6|2,10|2,3|3,10|5,12|5,8|6,7|8,9|9,12|10,20|10,13|10,14|11,13|11,22|11,21|13,14|15,16|15,22|16,18|17,18|18,19|18,21|19,20|1,24|24,1|1,65|65,1|1,84|84,1|2,25|25,2|2,72|72,2|3,26|26,3|3,54|54,3|3,55|55,3|3,57|57,3|4,27|27,4|5,28|28,5|5,53|53,5|5,66|66,5|6,29|29,6|7,30|30,7|8,31|31,8|8,61|61,8|9,32|32,9|9,70|70,9|9,74|74,9|10,33|33,10|10,49|49,10|10,76|76,10|11,34|34,11|11,51|51,11|11,58|58,11|11,59|59,11|11,79|79,11|12,35|35,12|12,88|88,12|12,91|91,12|13,36|36,13|14,37|37,14|14,50|50,14|14,60|60,14|14,71|71,14|14,82|82,14|15,38|38,15|15,62|62,15|15,68|68,15|15,81|81,15|16,39|39,16|16,52|52,16|16,67|67,16|16,77|77,16|16,78|78,16|16,87|87,16|17,40|40,17|17,56|56,17|18,41|41,18|18,63|63,18|18,69|69,18|18,85|85,18|19,42|42,19|19,75|75,19|19,80|80,19|19,92|92,19|20,43|43,20|21,44|44,21|21,47|47,21|21,73|73,21|21,83|83,21|21,89|89,21|21,90|90,21|22,45|45,22|23,46|46,23|23,48|48,23|23,64|64,23|23,86|86,23|];
nodes = [|1,9,0,0,0,0,1,1|2,9,0,0,0,0,1,2|3,9,0,0,0,0,1,3|4,9,0,0,0,0,1,4|5,9,0,0,0,0,1,5|6,9,0,0,0,0,1,6|7,9,0,0,0,0,1,7|8,9,0,0,0,0,1,8|9,9,0,0,0,0,1,9|10,9,0,0,0,0,1,10|11,9,0,0,0,0,1,11|12,9,0,0,0,0,1,12|13,9,0,0,0,0,1,13|14,9,0,0,0,0,1,14|15,9,0,0,0,0,1,15|16,9,0,0,0,0,1,16|17,9,0,0,0,0,1,17|18,9,0,0,0,0,1,18|19,9,0,0,0,0,1,19|20,9,0,0,0,0,1,20|21,9,0,0,0,0,1,21|22,9,0,0,0,0,1,22|23,9,0,0,0,0,1,23|24,10,0,0,0,0,1,1|25,10,0,0,0,0,1,2|26,10,0,0,0,0,1,3|27,10,0,0,0,0,1,4|28,10,0,0,0,0,1,5|29,10,0,0,0,0,1,6|30,10,0,0,0,0,1,7|31,10,0,0,0,0,1,8|32,10,0,0,0,0,1,9|33,10,0,0,0,0,1,10|34,10,0,0,0,0,1,11|35,10,0,0,0,0,1,12|36,10,0,0,0,0,1,13|37,10,0,0,0,0,1,14|38,10,0,0,0,0,1,15|39,10,0,0,0,0,1,16|40,10,0,0,0,0,1,17|41,10,0,0,0,0,1,18|42,10,0,0,0,0,1,19|43,10,0,0,0,0,1,20|44,10,0,0,0,0,1,21|45,10,0,0,0,0,1,22|46,10,0,0,0,0,1,23|47,1,0,0,0,0,1,21|48,5,0,0,0,0,1,23|49,3,0,0,0,0,1,10|50,1,0,0,0,0,1,14|51,4,0,0,0,0,1,11|52,2,0,0,0,0,1,16|53,2,0,0,0,0,1,5|54,5,0,0,0,0,1,3|55,3,0,0,0,0,1,3|56,3,0,0,0,0,1,17|57,4,0,0,0,0,1,3|58,1,0,0,0,0,1,11|59,5,0,0,0,0,1,11|60,2,0,0,0,0,1,14|61,2,0,0,0,0,1,8|62,4,0,0,0,0,1,15|63,3,0,0,0,0,1,18|64,4,0,0,0,0,1,23|65,5,0,0,0,0,1,1|66,3,0,0,0,0,1,5|67,5,0,0,0,0,1,16|68,1,0,0,0,0,1,15|69,3,0,0,0,0,1,18|70,5,0,0,0,0,1,9|71,3,0,0,0,0,1,14|72,2,0,0,0,0,1,2|73,4,0,0,0,0,1,21|74,5,0,0,0,0,1,9|75,5,0,0,0,0,1,19|76,2,0,0,0,0,1,10|77,3,0,0,0,0,1,16|78,2,0,0,0,0,1,16|79,5,0,0,0,0,1,11|80,1,0,0,0,0,1,19|81,4,0,0,0,0,1,15|82,4,0,0,0,0,1,14|83,5,0,0,0,0,1,21|84,4,0,0,0,0,1,1|85,4,0,0,0,0,1,18|86,3,0,0,0,0,1,23|87,5,0,0,0,0,1,16|88,4,0,0,0,0,1,12|89,1,0,0,0,0,1,21|90,3,0,0,0,0,1,21|91,1,0,0,0,0,1,12|92,5,0,0,0,0,1,19|];
